p tw 181 374
1 20
1 65
1 66
1 99
1 100
1 113
1 144
1 145
2 46
2 47
2 110
2 111
2 119
2 120
2 154
2 155
3 82
3 83
3 120
3 121
3 157
3 158
4 67
4 68
4 174
4 175
5 47
5 83
5 121
5 158
6 49
6 50
6 107
6 108
6 151
6 152
7 53
7 167
7 168
8 57
8 58
8 112
8 132
8 133
9 79
9 80
9 172
9 173
10 60
10 61
10 98
10 99
10 135
10 136
10 143
10 144
11 75
11 76
11 177
11 178
12 46
12 81
12 82
12 118
12 119
12 156
12 157
13 66
13 97
13 98
13 142
13 143
14 67
14 84
14 122
14 159
14 160
15 17
15 62
15 63
15 111
15 155
16 68
16 69
16 125
16 126
17 70
17 71
17 111
17 155
18 107
18 117
18 118
18 150
18 151
19 54
19 85
19 86
19 124
19 125
19 169
20 43
20 113
21 62
21 106
21 149
22 52
22 53
22 92
22 93
22 100
22 101
22 136
22 137
22 145
22 146
22 166
22 167
23 76
23 91
23 92
23 137
23 138
23 165
23 166
24 80
24 138
24 139
24 180
24 181
25 101
25 102
25 146
25 147
26 35
26 109
26 110
26 153
26 154
27 43
27 103
27 104
27 148
28 73
28 74
28 131
28 132
28 176
28 177
29 72
29 73
29 176
30 81
30 115
30 116
31 69
31 70
31 87
31 88
31 127
31 128
31 162
31 163
32 54
32 55
32 105
32 106
32 123
32 124
32 149
32 150
33 48
33 49
33 84
33 85
33 122
33 123
33 160
33 161
34 61
34 93
34 94
34 139
34 140
34 173
35 64
35 65
35 96
35 97
35 141
35 142
36 50
36 51
36 89
36 90
36 128
36 129
36 163
36 164
37 51
37 52
37 133
37 134
38 59
38 60
38 178
38 179
39 56
39 57
39 95
39 130
39 131
40 74
40 75
40 90
40 91
40 134
40 135
40 164
40 165
41 77
41 78
41 88
41 89
41 129
41 130
41 170
41 171
42 55
42 56
42 86
42 87
42 108
42 109
42 126
42 127
42 152
42 153
42 169
42 170
43 102
43 103
43 112
43 113
43 114
43 115
43 147
43 148
44 48
44 159
44 174
45 95
45 96
45 141
46 47
48 49
49 50
50 51
51 52
52 53
54 55
55 56
56 57
57 58
58 59
59 60
60 61
62 63
63 64
64 65
65 66
67 68
68 69
69 70
70 71
71 72
72 73
73 74
74 75
75 76
77 78
77 175
78 79
79 80
81 82
82 83
84 85
85 86
86 87
87 88
88 89
89 90
90 91
91 92
92 93
93 94
94 140
95 96
96 97
97 98
98 99
99 100
100 101
101 102
102 103
103 104
104 105
105 106
107 108
108 109
109 110
110 111
112 113
114 115
114 156
115 116
116 117
117 118
118 119
119 120
120 121
122 123
123 124
124 125
125 126
126 127
127 128
128 129
129 130
130 131
131 132
132 133
133 134
134 135
135 136
136 137
137 138
138 139
139 140
141 142
142 143
143 144
144 145
145 146
146 147
147 148
149 150
150 151
151 152
152 153
153 154
154 155
156 157
157 158
159 160
160 161
161 162
162 163
163 164
164 165
165 166
166 167
167 168
168 181
169 170
170 171
171 172
172 173
174 175
176 177
177 178
178 179
179 180
180 181
